69 69  
120 80 1
92 81 1
70 102 1
25 50 1
48 108 1
35 54 1
17 34 1
114 39 1
41 38 1
79 91 1
61 61 1
34 112 1
20 105 1
67 38 1
105 31 1
25 90 1
107 100 1
111 54 1
113 64 1
27 33 1
